42
estado 1  frame 1085  pop 15.3%  dG -0.00 kcal/mol
C        -4.78830    -2.73957     6.48480
C        -3.58316    -2.25653     5.72806
O        -3.56382    -1.17701     5.13666
N        -2.51452    -3.06798     5.72702
H        -2.52697    -3.95197     6.14151
C        -1.27019    -2.71654     5.03530
C        -0.15280    -3.62086     5.52482
C        -1.43810    -2.86072     3.52698
O        -1.17161    -3.90375     2.92717
N        -1.94071    -1.79109     2.90725
H        -2.25589    -1.04421     3.46135
C        -2.10166    -1.74392     1.46619
C        -2.94381    -0.52469     1.09353
C        -0.74514    -1.65335     0.76304
O        -0.18191    -0.58083     0.54339
N        -0.17994    -2.82325     0.48727
H        -0.61792    -3.64118     0.80400
C         1.04412    -2.92410    -0.27925
C         1.71390    -4.26590    -0.01388
C         0.74659    -2.80534    -1.76340
O        -0.00804    -3.61250    -2.29992
N         1.24126    -1.83613    -2.52351
H         1.01709    -1.83968    -3.47698
C         2.02137    -0.73039    -1.99861
C         3.40897    -0.72232    -2.62269
C         1.29618     0.54354    -2.40433
O         1.22135     0.88759    -3.58862
N         0.68830     1.22567    -1.43602
H         0.67011     0.85590    -0.52765
C         0.04126     2.50041    -1.68797
C        -0.81868     2.88424    -0.48941
C         1.07328     3.58250    -1.95932
O         1.54314     4.29245    -1.06767
N         1.47915     3.67634    -3.21985
H         1.15372     3.00606    -3.86110
C         2.42544     4.68691    -3.66144
C         2.97443     4.28783    -5.03111
C         1.74367     6.04955    -3.74644
O         1.38128     6.57298    -4.79772
N         1.51559     6.66667    -2.59991
H         1.75502     6.18741    -1.77664
H         1.10615     7.55018    -2.63524
42
estado 11  frame 897  pop 13.4%  dG 0.13 kcal/mol
C         4.26677    -2.66090     0.46598
C         3.40300    -1.83467     1.40369
O         2.93130    -2.31687     2.44343
N         3.21577    -0.56454     1.06356
H         3.60770    -0.22287     0.23023
C         2.36592     0.31528     1.85588
C         2.60489     1.77178     1.46701
C         0.91290    -0.04247     1.60315
O         0.28225     0.38870     0.63134
N         0.41753    -0.90524     2.49832
H         1.07967    -1.32547     3.09196
C        -0.95611    -1.38934     2.53799
C        -1.28556    -1.82947     3.95210
C        -2.05078    -0.42406     2.09395
O        -2.98544    -0.82395     1.39531
N        -1.95859     0.84735     2.48244
H        -1.24109     1.12654     3.08696
C        -2.82509     1.87214     1.92960
C        -3.32478     2.78062     3.04558
C        -1.96696     2.67706     0.95241
O        -1.14913     3.49302     1.37929
N        -2.01118     2.50024    -0.36535
H        -1.39051     3.01577    -0.91470
C        -2.83969     1.49848    -1.00536
C        -3.72512     2.16103    -2.05187
C        -1.93234     0.50509    -1.71567
O        -1.15461     0.87276    -2.60361
N        -2.03550    -0.75019    -1.28028
H        -2.62113    -0.91066    -0.51190
C        -1.29675    -1.89705    -1.79556
C        -1.85450    -2.32224    -3.15771
C         0.21833    -1.75763    -1.87712
O         0.93484    -2.31081    -1.04741
N         0.71995    -1.02041    -2.86848
H         0.09091    -0.52456    -3.43248
C         2.14135    -0.81152    -3.04681
C         2.42787    -0.40677    -4.48294
C         2.57217     0.34002    -2.15167
O         3.69049     0.39086    -1.64542
N         1.70648     1.31005    -1.90304
H         0.79281     1.21232    -2.25010
H         2.00539     2.05909    -1.35563
42
estado 2  frame 432  pop 10.7%  dG 0.36 kcal/mol
C        -5.58486     2.88548    -2.49894
C        -4.67797     1.98272    -1.68340
O        -4.74212     1.97050    -0.45200
N        -3.81656     1.22714    -2.35960
H        -3.73247     1.31232    -3.33318
C        -2.90387     0.30332    -1.71564
C        -3.52437    -1.09031    -1.66183
C        -1.65485     0.21342    -2.57723
O        -1.68412     0.51329    -3.77213
N        -0.54959    -0.19933    -1.96494
H        -0.59918    -0.48972    -1.02712
C         0.73956    -0.29646    -2.62660
C         1.46626     1.03950    -2.53701
C         1.57373    -1.30957    -1.85619
O         1.15204    -1.78325    -0.79857
N         2.75378    -1.69131    -2.34034
H         3.07772    -1.31156    -3.18043
C         3.62907    -2.57925    -1.59037
C         4.41089    -3.46693    -2.55817
C         4.60584    -1.73021    -0.78743
O         5.44455    -1.06150    -1.38902
N         4.56848    -1.60096     0.53743
H         5.25451    -1.05932     0.97665
C         3.51986    -2.16214     1.36638
C         4.12682    -3.14103     2.37227
C         2.91188    -0.98742     2.12115
O         3.55003    -0.41508     3.00657
N         1.70779    -0.58231     1.72898
H         1.23044    -1.08533     1.02838
C         1.02361     0.56667     2.30205
C         1.56421     1.84785     1.68611
C        -0.43795     0.47456     1.90331
O        -0.77002    -0.12914     0.87481
N        -1.32735     1.07062     2.68886
H        -1.04590     1.56832     3.48476
C        -2.74091     1.09687     2.37610
C        -3.47039     0.00492     3.14874
C        -3.28072     2.43060     2.85555
O        -2.79713     2.99847     3.83394
N        -4.27628     2.99665     2.20067
H        -4.61463     2.55086     1.39141
H        -4.61828     3.84046     2.54783
42
estado 8  frame 149  pop 10.5%  dG 0.37 kcal/mol
C         4.07234    -1.59011    -6.15615
C         3.33597    -1.73769    -4.83810
O         2.35236    -2.47312    -4.74098
N         3.81425    -1.02820    -3.81243
H         4.53126    -0.38780    -3.97064
C         3.20618    -1.09467    -2.49490
C         4.16224    -0.51777    -1.46624
C         1.92396    -0.27590    -2.46483
O         1.93330     0.92649    -2.74035
N         0.80264    -0.91297    -2.13123
H         0.87591    -1.82704    -1.77547
C        -0.48607    -0.24257    -2.15229
C        -1.61705    -1.26835    -2.20448
C        -0.63752     0.62705    -0.90912
O        -1.04632     0.19060     0.17488
N        -0.19392     1.86738    -1.08406
H         0.22992     2.08098    -1.94218
C        -0.28755     2.88856    -0.05722
C         0.50746     4.11759    -0.48384
C        -1.73376     3.32233     0.19321
O        -2.46869     3.57536    -0.75721
N        -2.25776     3.41413     1.41650
H        -3.19009     3.69203     1.50784
C        -1.51684     3.05000     2.61004
C        -1.43858     4.23143     3.58258
C        -2.24362     1.88708     3.27153
O        -3.17993     2.04017     4.05722
N        -1.84194     0.69649     2.83366
H        -1.20442     0.64946     2.09047
C        -2.32641    -0.55369     3.38799
C        -3.64226    -0.95337     2.70730
C        -1.26616    -1.61093     3.10113
O        -0.46645    -1.94568     3.97824
N        -1.14670    -2.09027     1.86423
H        -1.57215    -1.60422     1.12565
C        -0.24390    -3.18346     1.56338
C        -0.76837    -3.98638     0.37374
C         1.11472    -2.59086     1.23616
O         1.52984    -2.41660     0.09459
N         1.83329    -2.22822     2.28066
H         1.38896    -2.30784     3.16532
H         2.73029    -1.88951     2.12987
42
estado 12  frame 1077  pop 9.8%  dG 0.45 kcal/mol
C        -5.51925     0.93679     4.41804
C        -4.25674     1.02272     3.58104
O        -4.30398     1.13066     2.35399
N        -3.10595     0.93674     4.24849
H        -3.11412     0.74152     5.20667
C        -1.82229     1.02779     3.57185
C        -0.72206     1.29157     4.58695
C        -1.52159    -0.26149     2.81316
O        -0.92703    -1.21909     3.31769
N        -2.00903    -0.31089     1.57269
H        -2.53553     0.45557     1.25806
C        -1.80849    -1.46274     0.70895
C        -2.80526    -1.40675    -0.44799
C        -0.38287    -1.46529     0.16449
O        -0.09478    -1.02053    -0.95412
N         0.53713    -1.93662     1.00467
H         0.23859    -2.20477     1.90238
C         1.94933    -2.03017     0.66735
C         2.70434    -2.67677     1.82575
C         2.18099    -2.87831    -0.58271
O         1.64346    -3.97879    -0.68992
N         2.92420    -2.47037    -1.60791
H         3.01421    -3.08037    -2.36537
C         3.59582    -1.18200    -1.63836
C         4.93117    -1.33263    -2.34536
C         2.82307    -0.07736    -2.35218
O         3.17679     1.09531    -2.23074
N         1.72556    -0.41585    -3.04398
H         1.30024    -1.27324    -2.82508
C         1.06119     0.49704    -3.96881
C        -0.09681    -0.21884    -4.63998
C         0.51501     1.73905    -3.27952
O         0.70956     2.86517    -3.73612
N        -0.17220     1.53432    -2.16032
H        -0.37967     0.61660    -1.89142
C        -0.55012     2.61772    -1.27955
C        -2.02574     2.48329    -0.91472
C         0.31862     2.42488    -0.04191
O        -0.12421     2.18829     1.08148
N         1.63058     2.48661    -0.21031
H         1.98295     2.57322    -1.12242
H         2.19716     2.41698     0.58831
42
estado 10  frame 1874  pop 6.3%  dG 0.88 kcal/mol
C        -1.81108    -2.66275    -0.12604
C        -0.32698    -2.87034    -0.02416
O         0.37555    -2.23390     0.76070
N         0.22318    -3.75900    -0.86805
H        -0.27904    -4.13657    -1.62078
C         1.64511    -4.10746    -0.81461
C         1.87878    -5.41129    -1.55579
C         2.40593    -2.98574    -1.50206
O         2.56630    -2.95128    -2.72388
N         2.81892    -2.02777    -0.66697
H         2.58792    -2.13264     0.28214
C         3.42304    -0.76331    -1.06763
C         4.68727    -0.91910    -1.92911
C         2.42125     0.12193    -1.79453
O         2.08528     1.20034    -1.30017
N         1.90202    -0.29023    -2.94981
H         2.23802    -1.11067    -3.36759
C         0.78272     0.38728    -3.57350
C         0.88625     0.25667    -5.09189
C        -0.49697    -0.30291    -3.09792
O        -0.68311    -1.49372    -3.35013
N        -1.40219     0.28429    -2.31999
H        -2.23361    -0.19470    -2.12836
C        -1.19336     1.56714    -1.68006
C        -2.35024     2.50927    -1.99939
C        -1.21428     1.25776    -0.19173
O        -2.23031     0.80406     0.34699
N        -0.07857     1.43326     0.47953
H         0.71572     1.76960     0.01144
C         0.01673     1.14266     1.89959
C         1.48204     1.07542     2.30734
C        -0.69923     2.20296     2.72406
O        -0.12668     3.19513     3.18605
N        -2.01278     2.02052     2.85336
H        -2.42889     1.27580     2.37506
C        -2.84009     2.90773     3.65209
C        -4.29851     2.67251     3.28949
C        -2.61246     2.65151     5.14039
O        -3.39095     2.01882     5.85017
N        -1.49621     3.12068     5.66537
H        -0.85838     3.55474     5.05354
H        -1.36226     2.98708     6.62074
42
estado 5  frame 1995  pop 6.0%  dG 0.93 kcal/mol
C         0.72236     1.39664     3.03782
C         1.92378     0.80190     2.29654
O         2.32652     1.29533     1.23431
N         2.49486    -0.26512     2.83760
H         2.03765    -0.70043     3.58489
C         3.67322    -0.86299     2.25066
C         4.43696    -1.64929     3.31781
C         3.21742    -1.80471     1.14574
O         3.00929    -3.00739     1.34353
N         2.99025    -1.19802    -0.02333
H         3.15589    -0.23242    -0.05467
C         2.39563    -1.81171    -1.20604
C         3.15736    -3.05195    -1.69537
C         0.92728    -2.16976    -0.98077
O         0.05211    -1.70872    -1.71950
N         0.60967    -2.99397     0.02082
H         1.32900    -3.44449     0.51173
C        -0.75366    -3.17469     0.46920
C        -0.84522    -4.40763     1.36181
C        -1.10865    -1.94542     1.30541
O        -0.41951    -1.65302     2.28335
N        -2.10427    -1.12189     0.99023
H        -2.26778    -0.33444     1.54693
C        -2.88873    -1.27767    -0.22162
C        -4.34880    -1.53913     0.13797
C        -2.80488     0.02842    -0.99396
O        -3.26812     1.07305    -0.53554
N        -2.13793    -0.04514    -2.14811
H        -1.62933    -0.86787    -2.32050
C        -1.99454     1.05403    -3.10226
C        -3.34339     1.50884    -3.66301
C        -1.22248     2.25824    -2.57609
O        -0.07512     2.46042    -2.97529
N        -1.78891     3.05882    -1.67079
H        -2.63917     2.77146    -1.28183
C        -1.12282     4.24420    -1.13945
C        -2.17274     5.20459    -0.59025
C        -0.17957     3.79205    -0.03003
O        -0.39316     3.97609     1.16436
N         0.91057     3.16211    -0.42484
H         1.03406     3.02252    -1.39090
H         1.53959     2.85942     0.26274
42
estado 4  frame 274  pop 6.0%  dG 0.93 kcal/mol
C         2.05327     0.42986    -6.47071
C         1.86131     0.30459    -4.96830
O         2.20119    -0.71566    -4.36206
N         1.31888     1.34566    -4.34003
H         0.99501     2.11571    -4.84970
C         1.07152     1.31541    -2.91415
C         1.32963     2.69295    -2.30782
C        -0.38143     0.94194    -2.68382
O        -1.29756     1.67234    -3.06880
N        -0.60118    -0.24701    -2.12890
H         0.14823    -0.86157    -1.97538
C        -1.93193    -0.64534    -1.69906
C        -2.02252    -2.16985    -1.65809
C        -2.19394    -0.10166    -0.29508
O        -1.33346     0.54967     0.31124
N        -3.39046    -0.33972     0.24677
H        -4.03974    -0.87407    -0.24872
C        -3.70367     0.08379     1.60008
C        -5.21524     0.11534     1.79178
C        -3.11214    -0.92289     2.58419
O        -3.47693    -2.09816     2.54588
N        -2.18316    -0.59737     3.47811
H        -1.80533    -1.31288     4.03070
C        -1.63215     0.73995     3.59538
C        -1.76942     1.24605     5.02617
C        -0.15239     0.67584     3.25211
O         0.57965    -0.16223     3.78350
N         0.26464     1.50115     2.28884
H        -0.42136     1.88900     1.70736
C         1.65444     1.74576     1.90891
C         2.52194     2.15985     3.10218
C         2.38212     0.63254     1.16744
O         3.21549     0.92869     0.30626
N         2.11166    -0.64162     1.45111
H         1.47570    -0.83776     2.17162
C         2.72291    -1.75153     0.73870
C         2.34388    -3.05657     1.42427
C         2.24444    -1.78350    -0.70714
O         1.18914    -2.30823    -1.05273
N         2.99362    -1.14967    -1.59040
H         3.70626    -0.58498    -1.22710
H         2.78011    -1.22944    -2.54458
42
estado 0  frame 420  pop 5.0%  dG 1.11 kcal/mol
C        -5.18277    -4.16209     0.37502
C        -3.85975    -3.52575    -0.01033
O        -3.10669    -3.05934     0.84361
N        -3.58080    -3.50558    -1.32004
H        -4.25926    -3.83816    -1.94014
C        -2.33811    -2.96458    -1.83818
C        -2.13921    -3.45888    -3.26537
C        -2.34301    -1.43436    -1.81744
O        -2.53591    -0.74056    -2.82162
N        -2.15188    -0.89547    -0.62256
H        -1.88998    -1.49882     0.10701
C        -2.18016     0.53628    -0.40229
C        -2.53588     0.81702     1.05109
C        -0.79881     1.08219    -0.71233
O         0.08030     1.18886     0.14830
N        -0.57837     1.37623    -1.99170
H        -1.28059     1.16578    -2.64005
C         0.67893     1.95205    -2.43890
C         0.60248     2.17888    -3.93882
C         0.94585     3.29777    -1.76512
O         0.09761     4.18509    -1.81163
N         2.06126     3.57016    -1.09525
H         2.13392     4.44727    -0.67142
C         3.15321     2.61743    -0.95532
C         4.46081     3.35120    -1.21680
C         3.23438     1.95391     0.41684
O         4.14207     1.16403     0.68095
N         2.26248     2.19316     1.30005
H         1.42083     2.57569     0.97883
C         2.29999     1.68498     2.65937
C         1.55655     2.66175     3.56016
C         1.65596     0.29437     2.72501
O         0.69372     0.03378     3.45908
N         2.24040    -0.61881     1.94397
H         3.02471    -0.33255     1.43459
C         1.80618    -2.00041     1.78711
C         2.05426    -2.81463     3.05637
C         0.35735    -2.20546     1.35160
O         0.09813    -2.55672     0.20418
N        -0.65663    -1.98123     2.17493
H        -0.44501    -1.51629     3.01538
H        -1.56030    -2.23919     1.89575
42
estado 6  frame 881  pop 4.8%  dG 1.16 kcal/mol
C         1.75433     2.44910     4.46747
C         1.86350     1.28859     3.49444
O         1.49469     0.15556     3.81830
N         2.35288     1.60020     2.28562
H         2.48145     2.54645     2.07568
C         2.60867     0.64289     1.20897
C         3.83721    -0.21468     1.52380
C         1.43219    -0.25708     0.84040
O         0.72590     0.02548    -0.13132
N         1.14612    -1.30345     1.62487
H         1.70405    -1.44249     2.41810
C        -0.02345    -2.15206     1.42718
C        -0.06215    -3.22072     2.50919
C        -1.29569    -1.31965     1.54591
O        -2.28716    -1.56364     0.85853
N        -1.25443    -0.30983     2.41509
H        -0.49219    -0.23369     3.03039
C        -2.23597     0.75392     2.38743
C        -2.54173     1.21287     3.80752
C        -1.58888     1.90457     1.61329
O        -0.71328     2.59082     2.13995
N        -1.88514     2.18551     0.35023
H        -1.38275     2.88636    -0.11829
C        -2.84553     1.42275    -0.41398
C        -3.95528     2.33647    -0.90911
C        -2.13799     0.84658    -1.63024
O        -1.43689     1.55345    -2.35459
N        -2.24208    -0.47329    -1.79784
H        -2.55899    -0.99906    -1.03398
C        -1.83342    -1.21642    -2.97874
C        -2.64895    -0.77534    -4.20113
C        -0.36037    -1.25168    -3.38171
O         0.03703    -2.14843    -4.13222
N         0.50103    -0.35568    -2.90902
H         0.20996     0.27478    -2.21715
C         1.89070    -0.31914    -3.31508
C         2.45574     1.07108    -3.05054
C         2.70405    -1.38124    -2.57694
O         3.49224    -1.14081    -1.66472
N         2.51777    -2.63447    -2.95431
H         1.83175    -2.79751    -3.63804
H         3.05215    -3.32637    -2.52970
42
estado 7  frame 577  pop 4.0%  dG 1.34 kcal/mol
C        -3.82197     0.14622    -0.35464
C        -3.34848    -0.89652     0.63945
O        -3.15351    -0.60382     1.81533
N        -3.13099    -2.11874     0.14546
H        -3.12292    -2.23626    -0.82781
C        -2.76322    -3.24563     0.99035
C        -2.81757    -4.52493     0.16505
C        -1.33854    -3.06239     1.49855
O        -1.07384    -3.12810     2.70154
N        -0.39775    -2.80701     0.59012
H        -0.64041    -2.77946    -0.35745
C         0.92737    -2.40115     1.01891
C         1.97628    -2.78676    -0.01350
C         0.85228    -0.88505     1.13893
O         1.03688    -0.12706     0.17708
N         0.42797    -0.46412     2.32893
H         0.18399    -1.13970     2.99863
C         0.29658     0.93977     2.66284
C        -0.39746     1.07147     4.00976
C         1.66481     1.61697     2.75559
O         2.57537     1.06633     3.37230
N         1.93660     2.76423     2.14506
H         2.82631     3.15578     2.25835
C         0.99337     3.42768     1.26433
C         0.73896     4.84198     1.76755
C         1.62961     3.47676    -0.11771
O         2.38269     4.38591    -0.46023
N         1.36457     2.42770    -0.89913
H         0.84649     1.68078    -0.53158
C         1.83934     2.32678    -2.26412
C         3.26696     1.77355    -2.29205
C         0.93168     1.35505    -3.00991
O         0.09677     1.77337    -3.81156
N         0.99237     0.05357    -2.71312
H         1.46999    -0.22595    -1.90266
C         0.23498    -0.93083    -3.46822
C         0.92704    -2.28694    -3.43129
C        -1.16441    -1.05364    -2.87526
O        -1.50395    -1.92803    -2.07924
N        -2.00725    -0.10713    -3.24538
H        -1.64215     0.63200    -3.76705
H        -2.94802    -0.16776    -2.95907
42
estado 13  frame 1820  pop 4.0%  dG 1.35 kcal/mol
C         4.55396     0.83420     1.27365
C         3.95262     0.65181    -0.09887
O         3.10321     1.42178    -0.53569
N         4.33191    -0.46697    -0.74889
H         4.76888    -1.17649    -0.23643
C         4.04591    -0.70158    -2.15746
C         4.71734    -1.99769    -2.58339
C         2.57251    -0.80633    -2.53094
O         2.13895    -0.23411    -3.52633
N         1.75951    -1.52313    -1.74334
H         2.10366    -1.84091    -0.88054
C         0.35727    -1.69240    -2.07685
C        -0.16267    -2.99135    -1.46401
C        -0.42531    -0.49496    -1.54213
O        -1.11639    -0.55263    -0.51844
N        -0.25273     0.61975    -2.24565
H         0.31424     0.58525    -3.04435
C        -0.86015     1.88814    -1.87509
C        -0.46455     2.94545    -2.89743
C        -2.38079     1.81787    -1.82804
O        -3.00442     1.32696    -2.76622
N        -3.09947     2.22789    -0.78278
H        -4.07081     2.19913    -0.86293
C        -2.49737     2.72667     0.44354
C        -3.38844     3.80606     1.03085
C        -2.29997     1.65618     1.51098
O        -1.38775     1.76070     2.33010
N        -3.08990     0.58214     1.44874
H        -3.50769     0.37805     0.58441
C        -3.26489    -0.35846     2.55043
C        -4.17318    -1.49194     2.10294
C        -1.99894    -0.98174     3.11949
O        -1.88716    -1.19046     4.32571
N        -1.04353    -1.29295     2.24965
H        -1.21256    -1.15235     1.29676
C         0.26875    -1.76353     2.64792
C         0.35703    -3.26718     2.40398
C         1.24756    -1.03222     1.73747
O         2.15218    -1.58771     1.10993
N         1.06365     0.27519     1.60600
H         0.33120     0.67861     2.12496
H         1.65319     0.79314     1.01600
42
estado 9  frame 283  pop 2.8%  dG 1.69 kcal/mol
C         1.41614     3.57085    -2.77046
C         1.42510     2.26658    -3.56023
O         0.79813     2.16816    -4.61361
N         2.13776     1.26473    -3.04501
H         2.51983     1.37007    -2.14838
C         2.27326    -0.01213    -3.72497
C         3.48677    -0.73972    -3.15883
C         1.06212    -0.90023    -3.51741
O         0.64922    -1.63897    -4.41051
N         0.46197    -0.84789    -2.32671
H         0.79209    -0.23471    -1.63084
C        -0.70203    -1.66034    -2.01761
C        -0.24492    -3.00335    -1.45096
C        -1.55136    -0.96790    -0.95977
O        -1.22527     0.13533    -0.50975
N        -2.66158    -1.57532    -0.55590
H        -2.87223    -2.44782    -0.93695
C        -3.50264    -1.02965     0.49201
C        -4.87119    -1.69388     0.43816
C        -2.88717    -1.33892     1.85265
O        -2.55027    -2.49090     2.12152
N        -2.58321    -0.40857     2.75592
H        -2.24295    -0.70850     3.62536
C        -2.60690     1.01516     2.47253
C        -3.26377     1.76064     3.62021
C        -1.15140     1.44191     2.40470
O        -0.36254     1.08924     3.29112
N        -0.78671     2.11573     1.30584
H        -1.45583     2.22500     0.59705
C         0.57775     2.54427     1.00739
C         1.13264     3.52175     2.05717
C         1.52913     1.36217     0.83808
O         1.90787     1.03963    -0.29041
N         1.89586     0.68909     1.92788
H         1.58726     1.00761     2.80134
C         2.63286    -0.55832     1.85746
C         3.36072    -0.78785     3.16801
C         1.63989    -1.69969     1.67847
O         1.91197    -2.69104     1.01850
N         0.44748    -1.60887     2.25408
H         0.25385    -0.80660     2.77851
H        -0.18097    -2.35614     2.13330
42
estado 3  frame 1808  pop 1.2%  dG 2.53 kcal/mol
C         5.21767    -0.11344    -2.04339
C         4.01727    -0.17608    -1.11017
O         2.87086    -0.10845    -1.55606
N         4.25829    -0.31082     0.19117
H         5.18667    -0.30755     0.49715
C         3.19123    -0.42380     1.17238
C         3.80599    -0.91355     2.47289
C         2.47711     0.90178     1.39957
O         2.67354     1.61369     2.38872
N         1.61184     1.18458     0.43541
H         1.41110     0.46843    -0.21193
C         0.90713     2.43474     0.33144
C         1.77737     3.44580    -0.40741
C        -0.33294     2.18916    -0.51133
O        -1.43482     2.54564    -0.09988
N        -0.17286     1.56185    -1.68185
H         0.70042     1.18943    -1.93954
C        -1.28627     1.33517    -2.58236
C        -1.32063     2.42170    -3.65376
C        -1.05121     0.00383    -3.27706
O         0.05043    -0.22764    -3.76303
N        -1.94469    -0.98000    -3.36752
H        -1.72091    -1.73182    -3.94896
C        -3.23225    -0.94467    -2.68865
C        -4.18145    -1.92218    -3.36769
C        -3.12104    -1.34796    -1.22048
O        -3.92416    -0.94449    -0.38295
N        -2.10937    -2.15339    -0.89482
H        -1.47197    -2.41888    -1.58577
C        -1.85533    -2.52497     0.48055
C        -0.95363    -3.75132     0.51695
C        -1.11739    -1.35847     1.12112
O        -0.00989    -1.00304     0.70495
N        -1.78865    -0.69190     2.05231
H        -2.72699    -0.92634     2.20758
C        -1.18037     0.36155     2.84373
C        -2.25971     1.18806     3.51624
C        -0.31258    -0.24738     3.93360
O        -0.65770    -1.25957     4.53839
N         0.85125     0.31065     4.21968
H         1.15715     1.08887     3.70269
H         1.37247    -0.10000     4.93642
