42
estado 2 (PLPβLα), frame 787 de trajectory.xyz
C        -1.71393      3.05443      3.73390
C        -1.85670      1.59487      3.34436
O        -1.54812      0.68558      4.11590
N        -2.36393      1.33504      2.12874
H        -2.60765      2.08980      1.54856
C        -2.48964     -0.01700      1.63460
C        -3.40451     -0.06121      0.41470
C        -1.10514     -0.52659      1.24607
O        -0.57787     -0.24603      0.16919
N        -0.53034     -1.24583      2.21055
H        -0.96654     -1.22685      3.08864
C         0.77541     -1.89393      2.10308
C         0.84775     -3.01704      3.12137
C         1.14443     -2.46460      0.74053
O         2.28454     -2.30557      0.29006
N         0.21772     -3.11920      0.05088
H        -0.66520     -3.28012      0.44011
C         0.42368     -3.47987     -1.33854
C        -0.08449     -4.90069     -1.58113
C        -0.40234     -2.49167     -2.16235
O        -1.62440     -2.59778     -2.21520
N         0.13506     -1.45229     -2.80102
H        -0.46162     -0.84136     -3.27791
C         1.54575     -1.12110     -2.73519
C         2.12509     -1.04928     -4.14155
C         1.68605      0.24898     -2.08741
O         1.15434      1.24698     -2.58765
N         2.36271      0.26246     -0.93790
H         2.64002     -0.60715     -0.57279
C         2.66535      1.44628     -0.13901
C         3.73244      2.30238     -0.81546
C         1.48080      2.32606      0.25466
O         1.02723      2.28783      1.39823
N         0.95286      3.11074     -0.68319
H         1.29602      3.03245     -1.59734
C        -0.19245      3.95814     -0.43146
C        -0.22734      5.07844     -1.46061
C        -1.45741      3.13402     -0.59228
O        -2.47456      3.36611      0.05163
N        -1.44909      2.11773     -1.44406
H        -0.60567      1.89905     -1.89253
H        -2.27429      1.60886     -1.55796
