42
estado 0 (PPPβPP), frame 1085 de trajectory.xyz
C        -4.78830     -2.73957      6.48480
C        -3.58316     -2.25653      5.72806
O        -3.56382     -1.17701      5.13666
N        -2.51452     -3.06798      5.72702
H        -2.52697     -3.95197      6.14151
C        -1.27019     -2.71654      5.03530
C        -0.15280     -3.62086      5.52482
C        -1.43810     -2.86072      3.52698
O        -1.17161     -3.90375      2.92717
N        -1.94071     -1.79109      2.90725
H        -2.25589     -1.04421      3.46135
C        -2.10166     -1.74392      1.46619
C        -2.94381     -0.52469      1.09353
C        -0.74514     -1.65335      0.76303
O        -0.18191     -0.58083      0.54339
N        -0.17994     -2.82325      0.48727
H        -0.61792     -3.64118      0.80400
C         1.04412     -2.92410     -0.27925
C         1.71390     -4.26590     -0.01388
C         0.74659     -2.80534     -1.76340
O        -0.00804     -3.61250     -2.29992
N         1.24126     -1.83613     -2.52351
H         1.01709     -1.83968     -3.47698
C         2.02137     -0.73039     -1.99861
C         3.40897     -0.72232     -2.62269
C         1.29618      0.54354     -2.40433
O         1.22135      0.88759     -3.58862
N         0.68830      1.22567     -1.43602
H         0.67011      0.85590     -0.52765
C         0.04126      2.50041     -1.68797
C        -0.81868      2.88424     -0.48941
C         1.07328      3.58250     -1.95932
O         1.54314      4.29245     -1.06767
N         1.47915      3.67634     -3.21985
H         1.15372      3.00606     -3.86110
C         2.42544      4.68691     -3.66144
C         2.97443      4.28783     -5.03111
C         1.74367      6.04955     -3.74644
O         1.38128      6.57298     -4.79772
N         1.51559      6.66667     -2.59991
H         1.75502      6.18741     -1.77664
H         1.10615      7.55018     -2.63524
