42
estado 3 (ββPβββ), frame 450 de trajectory.xyz
C        -3.33980      3.19435      4.96822
C        -2.19164      2.78471      4.06133
O        -1.53808      3.62758      3.43918
N        -1.95877      1.47784      3.97281
H        -2.54157      0.83346      4.43367
C        -0.90654      0.91744      3.14782
C         0.34147      0.67914      3.98833
C        -1.37576     -0.43703      2.63969
O        -2.26668     -1.05966      3.22296
N        -0.77056     -0.89460      1.55043
H         0.00002     -0.40166      1.18452
C        -1.12832     -2.14372      0.90633
C        -2.25390     -1.88662     -0.08914
C         0.07594     -2.62356      0.11207
O         1.07743     -1.91421      0.02291
N         0.03783     -3.81349     -0.48500
H        -0.76822     -4.36602     -0.42094
C         1.13039     -4.27867     -1.31916
C         1.30223     -5.78329     -1.15675
C         0.79512     -3.97234     -2.77563
O        -0.14021     -4.55511     -3.31319
N         1.42035     -3.04174     -3.48933
H         1.15712     -2.93313     -4.42547
C         2.38000     -2.11057     -2.92841
C         3.72453     -2.25233     -3.62639
C         1.82995     -0.71385     -3.19272
O         1.78017     -0.25539     -4.33554
N         1.34978     -0.06137     -2.13521
H         1.43655     -0.45845     -1.23948
C         0.72634      1.24883     -2.22402
C        -0.71899      1.11337     -2.68835
C         0.67626      1.83865     -0.82630
O         0.70792      1.11165      0.16882
N         0.59320      3.16132     -0.73559
H         0.55594      3.71566     -1.54553
C         0.47862      3.85379      0.53502
C         1.83731      4.39543      0.96643
C        -0.42943      5.04148      0.28364
O        -0.46979      5.58451     -0.81979
N        -1.18999      5.48913      1.26331
H        -1.17109      5.00621      2.12046
H        -1.74436      6.27176      1.08383
