42
estado 1 (PPPααP), frame 132 de trajectory.xyz
C        -3.56450     -1.44581      6.49578
C        -2.93686     -0.72334      5.31360
O        -3.62475     -0.07206      4.52616
N        -1.61529     -0.84323      5.17430
H        -1.12878     -1.43829      5.77486
C        -0.90184     -0.20127      4.08306
C         0.59905     -0.19855      4.37190
C        -1.13459     -0.99956      2.80599
O        -0.80924     -2.19307      2.73528
N        -1.71841     -0.36506      1.79313
H        -1.85596      0.60217      1.86336
C        -2.02240     -1.05207      0.55148
C        -3.13781     -0.33039     -0.19569
C        -0.77028     -1.11628     -0.30875
O        -0.49878     -0.27677     -1.17404
N         0.03413     -2.12858      0.01384
H        -0.22416     -2.69408      0.77311
C         1.27871     -2.40843     -0.68473
C         1.91245     -3.66293     -0.09649
C         1.05686     -2.64911     -2.17469
O         0.16035     -3.39947     -2.55249
N         1.78525     -2.04381     -3.10613
H         1.58803     -2.25140     -4.03878
C         2.85792     -1.11110     -2.80248
C         4.04995     -1.45824     -3.67736
C         2.48107      0.34300     -3.05599
O         3.34846      1.21654     -3.07974
N         1.18899      0.63981     -3.20463
H         0.51473     -0.03410     -2.97450
C         0.74787      1.97700     -3.56422
C        -0.58759      1.90992     -4.29606
C         0.57009      2.82850     -2.31958
O         1.33368      3.76650     -2.08469
N        -0.40355      2.51841     -1.46953
H        -0.88219      1.66906     -1.57910
C        -0.65243      3.31694     -0.28440
C        -2.12699      3.24972      0.09699
C         0.20046      2.73702      0.83256
O        -0.24614      2.02863      1.73568
N         1.49710      3.00338      0.76824
H         1.80861      3.50769     -0.03587
H         2.07233      2.69260      1.47499
